
                                                                       < M A T L A B (R) >
                                                             Copyright 1984-2014 The MathWorks, Inc.
                                                               R2014a (8.3.0.532) 64-bit (glnxa64)
                                                                        February 11, 2014

 
To get started, type one of these: helpwin, helpdesk, or demo.
For product information, visit www.mathworks.com.
 
Solver: cplexint
Multi-process version with 32 workers
Starting parallel pool (parpool) using the 'local' profile ... [Warning: Removed '/home/laurent.heirendt/.matlab/local_cluster_jobs/R2014a/Job4' from the MATLAB path for this MATLAB session.
	See 'doc path' for more information.] 
[> In distcomp.filestorage.destroyLocation at 43
  In CJSSupport>CJSSupport.destroyJob at 692
  In CJSJobMethods>CJSJobMethods.destroyOneJob at 82
  In CJSCommunicatingJob>CJSCommunicatingJob.destroyOneJob at 94
  In Job.Job>Job.delete at 1037
  In InteractiveClient>iDeleteJobs at 847
  In InteractiveClient>InteractiveClient.pRemoveOldJobs at 454
  In InteractiveClient>InteractiveClient.start at 309
  In Pool.Pool>iStartClient at 537
  In Pool.Pool>Pool.hBuildPool at 434
  In parpool at 104
  In SetWorkerCount at 30
  In run_exps_happy at 53] 
connected to 32 workers.
Parallel computation initialized

 >> Currently solving model hsall


>> The solver is CPLEX.

Size of model: (19714,28199)
>> The number of workers is 32.


 -- Starting to loop through the 32 workers. -- 

Worker LoopID = 25, TaskID = 16  (21152, 22032) of (19714, 28199) 
Successfully set CPX_PARAM_PARALLELMODE and the status is 0 
Successfully set CPX_PARAM_THREADS and the status is 0 
Successfully set CPX_PARAM_AUXROOTTHREADS and the status is 0 
Successfully set CPXPARAM_MIP_Strategy_PresolveNode and the status is 0 
  >> Time spent in FVAc: 64.6 seconds.

Worker LoopID = 28, TaskID = 30  (23795, 24675) of (19714, 28199) 
Successfully set CPX_PARAM_PARALLELMODE and the status is 0 
Successfully set CPX_PARAM_THREADS and the status is 0 
Successfully set CPX_PARAM_AUXROOTTHREADS and the status is 0 
Successfully set CPXPARAM_MIP_Strategy_PresolveNode and the status is 0 
  >> Time spent in FVAc: 64.9 seconds.

Worker LoopID = 27, TaskID = 13  (22914, 23794) of (19714, 28199) 
Successfully set CPX_PARAM_PARALLELMODE and the status is 0 
Successfully set CPX_PARAM_THREADS and the status is 0 
Successfully set CPX_PARAM_AUXROOTTHREADS and the status is 0 
Successfully set CPXPARAM_MIP_Strategy_PresolveNode and the status is 0 
  >> Time spent in FVAc: 73.8 seconds.

Worker LoopID = 24, TaskID = 22  (20271, 21151) of (19714, 28199) 
Successfully set CPX_PARAM_PARALLELMODE and the status is 0 
Successfully set CPX_PARAM_THREADS and the status is 0 
Successfully set CPX_PARAM_AUXROOTTHREADS and the status is 0 
Successfully set CPXPARAM_MIP_Strategy_PresolveNode and the status is 0 
  >> Time spent in FVAc: 111.5 seconds.

Worker LoopID = 32, TaskID = 32  (27319, 28199) of (19714, 28199) 
Successfully set CPX_PARAM_PARALLELMODE and the status is 0 
Successfully set CPX_PARAM_THREADS and the status is 0 
Successfully set CPX_PARAM_AUXROOTTHREADS and the status is 0 
Successfully set CPXPARAM_MIP_Strategy_PresolveNode and the status is 0 
  >> Time spent in FVAc: 121.3 seconds.

Worker LoopID = 29, TaskID = 24  (24676, 25556) of (19714, 28199) 
Successfully set CPX_PARAM_PARALLELMODE and the status is 0 
Successfully set CPX_PARAM_THREADS and the status is 0 
Successfully set CPX_PARAM_AUXROOTTHREADS and the status is 0 
Successfully set CPXPARAM_MIP_Strategy_PresolveNode and the status is 0 
  >> Time spent in FVAc: 134.5 seconds.

Worker LoopID = 30, TaskID = 26  (25557, 26437) of (19714, 28199) 
Successfully set CPX_PARAM_PARALLELMODE and the status is 0 
Successfully set CPX_PARAM_THREADS and the status is 0 
Successfully set CPX_PARAM_AUXROOTTHREADS and the status is 0 
Successfully set CPXPARAM_MIP_Strategy_PresolveNode and the status is 0 
  >> Time spent in FVAc: 204.3 seconds.

Worker LoopID = 13, TaskID = 9  (10580, 11460) of (19714, 28199) 
Successfully set CPX_PARAM_PARALLELMODE and the status is 0 
Successfully set CPX_PARAM_THREADS and the status is 0 
Successfully set CPX_PARAM_AUXROOTTHREADS and the status is 0 
Successfully set CPXPARAM_MIP_Strategy_PresolveNode and the status is 0 
  >> Time spent in FVAc: 237.7 seconds.

Worker LoopID = 19, TaskID = 27  (15866, 16746) of (19714, 28199) 
Successfully set CPX_PARAM_PARALLELMODE and the status is 0 
Successfully set CPX_PARAM_THREADS and the status is 0 
Successfully set CPX_PARAM_AUXROOTTHREADS and the status is 0 
Successfully set CPXPARAM_MIP_Strategy_PresolveNode and the status is 0 
  >> Time spent in FVAc: 271.4 seconds.

Worker LoopID = 22, TaskID = 18  (18509, 19389) of (19714, 28199) 
Successfully set CPX_PARAM_PARALLELMODE and the status is 0 
Successfully set CPX_PARAM_THREADS and the status is 0 
Successfully set CPX_PARAM_AUXROOTTHREADS and the status is 0 
Successfully set CPXPARAM_MIP_Strategy_PresolveNode and the status is 0 
  >> Time spent in FVAc: 272.5 seconds.

Worker LoopID = 5, TaskID = 10  (3529, 4410) of (19714, 28199) 
Successfully set CPX_PARAM_PARALLELMODE and the status is 0 
Successfully set CPX_PARAM_THREADS and the status is 0 
Successfully set CPX_PARAM_AUXROOTTHREADS and the status is 0 
Successfully set CPXPARAM_MIP_Strategy_PresolveNode and the status is 0 
  >> Time spent in FVAc: 276.2 seconds.

Worker LoopID = 21, TaskID = 12  (17628, 18508) of (19714, 28199) 
Successfully set CPX_PARAM_PARALLELMODE and the status is 0 
Successfully set CPX_PARAM_THREADS and the status is 0 
Successfully set CPX_PARAM_AUXROOTTHREADS and the status is 0 
Successfully set CPXPARAM_MIP_Strategy_PresolveNode and the status is 0 
  >> Time spent in FVAc: 289.4 seconds.

Worker LoopID = 31, TaskID = 23  (26438, 27318) of (19714, 28199) 
Successfully set CPX_PARAM_PARALLELMODE and the status is 0 
Successfully set CPX_PARAM_THREADS and the status is 0 
Successfully set CPX_PARAM_AUXROOTTHREADS and the status is 0 
Successfully set CPXPARAM_MIP_Strategy_PresolveNode and the status is 0 
  >> Time spent in FVAc: 291.2 seconds.

Worker LoopID = 23, TaskID = 20  (19390, 20270) of (19714, 28199) 
Successfully set CPX_PARAM_PARALLELMODE and the status is 0 
Successfully set CPX_PARAM_THREADS and the status is 0 
Successfully set CPX_PARAM_AUXROOTTHREADS and the status is 0 
Successfully set CPXPARAM_MIP_Strategy_PresolveNode and the status is 0 
  >> Time spent in FVAc: 309.5 seconds.

Worker LoopID = 12, TaskID = 5  (9699, 10579) of (19714, 28199) 
Successfully set CPX_PARAM_PARALLELMODE and the status is 0 
Successfully set CPX_PARAM_THREADS and the status is 0 
Successfully set CPX_PARAM_AUXROOTTHREADS and the status is 0 
Successfully set CPXPARAM_MIP_Strategy_PresolveNode and the status is 0 
  >> Time spent in FVAc: 313.3 seconds.

Worker LoopID = 1, TaskID = 25  (1, 882) of (19714, 28199) 
Successfully set CPX_PARAM_PARALLELMODE and the status is 0 
Successfully set CPX_PARAM_THREADS and the status is 0 
Successfully set CPX_PARAM_AUXROOTTHREADS and the status is 0 
Successfully set CPXPARAM_MIP_Strategy_PresolveNode and the status is 0 
  >> Time spent in FVAc: 332.0 seconds.

Worker LoopID = 17, TaskID = 6  (14104, 14984) of (19714, 28199) 
Successfully set CPX_PARAM_PARALLELMODE and the status is 0 
Successfully set CPX_PARAM_THREADS and the status is 0 
Successfully set CPX_PARAM_AUXROOTTHREADS and the status is 0 
Successfully set CPXPARAM_MIP_Strategy_PresolveNode and the status is 0 
  >> Time spent in FVAc: 332.7 seconds.

Worker LoopID = 26, TaskID = 28  (22033, 22913) of (19714, 28199) 
Successfully set CPX_PARAM_PARALLELMODE and the status is 0 
Successfully set CPX_PARAM_THREADS and the status is 0 
Successfully set CPX_PARAM_AUXROOTTHREADS and the status is 0 
Successfully set CPXPARAM_MIP_Strategy_PresolveNode and the status is 0 
  >> Time spent in FVAc: 349.4 seconds.

Worker LoopID = 9, TaskID = 29  (7056, 7936) of (19714, 28199) 
Successfully set CPX_PARAM_PARALLELMODE and the status is 0 
Successfully set CPX_PARAM_THREADS and the status is 0 
Successfully set CPX_PARAM_AUXROOTTHREADS and the status is 0 
Successfully set CPXPARAM_MIP_Strategy_PresolveNode and the status is 0 
  >> Time spent in FVAc: 351.1 seconds.

Worker LoopID = 6, TaskID = 1  (4411, 5292) of (19714, 28199) 
Successfully set CPX_PARAM_PARALLELMODE and the status is 0 
Successfully set CPX_PARAM_THREADS and the status is 0 
Successfully set CPX_PARAM_AUXROOTTHREADS and the status is 0 
Successfully set CPXPARAM_MIP_Strategy_PresolveNode and the status is 0 
  >> Time spent in FVAc: 355.5 seconds.

Worker LoopID = 18, TaskID = 17  (14985, 15865) of (19714, 28199) 
Successfully set CPX_PARAM_PARALLELMODE and the status is 0 
Successfully set CPX_PARAM_THREADS and the status is 0 
Successfully set CPX_PARAM_AUXROOTTHREADS and the status is 0 
Successfully set CPXPARAM_MIP_Strategy_PresolveNode and the status is 0 
  >> Time spent in FVAc: 377.8 seconds.

Worker LoopID = 10, TaskID = 8  (7937, 8817) of (19714, 28199) 
Successfully set CPX_PARAM_PARALLELMODE and the status is 0 
Successfully set CPX_PARAM_THREADS and the status is 0 
Successfully set CPX_PARAM_AUXROOTTHREADS and the status is 0 
Successfully set CPXPARAM_MIP_Strategy_PresolveNode and the status is 0 
  >> Time spent in FVAc: 393.1 seconds.

Worker LoopID = 4, TaskID = 31  (2647, 3528) of (19714, 28199) 
Successfully set CPX_PARAM_PARALLELMODE and the status is 0 
Successfully set CPX_PARAM_THREADS and the status is 0 
Successfully set CPX_PARAM_AUXROOTTHREADS and the status is 0 
Successfully set CPXPARAM_MIP_Strategy_PresolveNode and the status is 0 
  >> Time spent in FVAc: 393.6 seconds.

Worker LoopID = 15, TaskID = 15  (12342, 13222) of (19714, 28199) 
Successfully set CPX_PARAM_PARALLELMODE and the status is 0 
Successfully set CPX_PARAM_THREADS and the status is 0 
Successfully set CPX_PARAM_AUXROOTTHREADS and the status is 0 
Successfully set CPXPARAM_MIP_Strategy_PresolveNode and the status is 0 
  >> Time spent in FVAc: 411.1 seconds.

Worker LoopID = 11, TaskID = 11  (8818, 9698) of (19714, 28199) 
Successfully set CPX_PARAM_PARALLELMODE and the status is 0 
Successfully set CPX_PARAM_THREADS and the status is 0 
Successfully set CPX_PARAM_AUXROOTTHREADS and the status is 0 
Successfully set CPXPARAM_MIP_Strategy_PresolveNode and the status is 0 
  >> Time spent in FVAc: 416.1 seconds.

Worker LoopID = 14, TaskID = 3  (11461, 12341) of (19714, 28199) 
Successfully set CPX_PARAM_PARALLELMODE and the status is 0 
Successfully set CPX_PARAM_THREADS and the status is 0 
Successfully set CPX_PARAM_AUXROOTTHREADS and the status is 0 
Successfully set CPXPARAM_MIP_Strategy_PresolveNode and the status is 0 
  >> Time spent in FVAc: 429.5 seconds.

Worker LoopID = 20, TaskID = 19  (16747, 17627) of (19714, 28199) 
Successfully set CPX_PARAM_PARALLELMODE and the status is 0 
Successfully set CPX_PARAM_THREADS and the status is 0 
Successfully set CPX_PARAM_AUXROOTTHREADS and the status is 0 
Successfully set CPXPARAM_MIP_Strategy_PresolveNode and the status is 0 
  >> Time spent in FVAc: 446.1 seconds.

Worker LoopID = 7, TaskID = 21  (5293, 6174) of (19714, 28199) 
Successfully set CPX_PARAM_PARALLELMODE and the status is 0 
Successfully set CPX_PARAM_THREADS and the status is 0 
Successfully set CPX_PARAM_AUXROOTTHREADS and the status is 0 
Successfully set CPXPARAM_MIP_Strategy_PresolveNode and the status is 0 
  >> Time spent in FVAc: 470.0 seconds.

Worker LoopID = 2, TaskID = 7  (883, 1764) of (19714, 28199) 
Successfully set CPX_PARAM_PARALLELMODE and the status is 0 
Successfully set CPX_PARAM_THREADS and the status is 0 
Successfully set CPX_PARAM_AUXROOTTHREADS and the status is 0 
Successfully set CPXPARAM_MIP_Strategy_PresolveNode and the status is 0 
  >> Time spent in FVAc: 507.2 seconds.

Worker LoopID = 3, TaskID = 2  (1765, 2646) of (19714, 28199) 
Successfully set CPX_PARAM_PARALLELMODE and the status is 0 
Successfully set CPX_PARAM_THREADS and the status is 0 
Successfully set CPX_PARAM_AUXROOTTHREADS and the status is 0 
Successfully set CPXPARAM_MIP_Strategy_PresolveNode and the status is 0 
  >> Time spent in FVAc: 516.8 seconds.

Worker LoopID = 8, TaskID = 14  (6175, 7055) of (19714, 28199) 
Successfully set CPX_PARAM_PARALLELMODE and the status is 0 
Successfully set CPX_PARAM_THREADS and the status is 0 
Successfully set CPX_PARAM_AUXROOTTHREADS and the status is 0 
Successfully set CPXPARAM_MIP_Strategy_PresolveNode and the status is 0 
  >> Time spent in FVAc: 527.6 seconds.

Worker LoopID = 16, TaskID = 4  (13223, 14103) of (19714, 28199) 
Successfully set CPX_PARAM_PARALLELMODE and the status is 0 
Successfully set CPX_PARAM_THREADS and the status is 0 
Successfully set CPX_PARAM_AUXROOTTHREADS and the status is 0 
Successfully set CPXPARAM_MIP_Strategy_PresolveNode and the status is 0 
  >> Time spent in FVAc: 537.9 seconds.


outputData = 

    outArray0: [1 2 3 4 5 6 7 8 9 10 11 12 13 14 15 16 17 18 19 20 21 22 23 24 25 26 27 28 29 30 31 32]
    outArray2: [1x32 double]
    outArray3: [1x32 double]
    outArray4: [1x32 double]

>> nworkers = 32, 	 model = hsall	539.3
